words_hard_train/4905.qaiger
aag 47 16 0 1 31
2
4
12
14
18
20
26
28
32
34
40
42
46
48
64
66
94
6 2 4
8 3 5
10 7 9
16 13 15
22 19 21
24 17 23
30 26 28
36 32 34
38 31 37
44 41 43
50 47 49
52 40 42
54 50 53
56 45 55
58 33 35
60 56 59
62 38 61
68 65 67
70 27 29
72 69 71
74 63 72
76 64 66
78 75 77
80 18 20
82 78 81
84 24 83
86 12 14
88 85 87
90 11 89
92 10 88
94 91 93
i0 1 x1[7]
i1 2 y2[7]
i2 1 x1[6]
i3 2 y2[6]
i4 1 x1[5]
i5 2 y2[5]
i6 1 x1[3]
i7 2 y2[3]
i8 1 x1[2]
i9 2 y2[2]
i10 1 x1[1]
i11 2 y2[1]
i12 1 x1[0]
i13 2 y2[0]
i14 1 x1[4]
i15 2 y2[4]
o0 bv[0]
c
simplified
  <
    unary minus
      1
    add
      1
      add
        1 x1
        2 y2
