words_hard_train/4905.qaiger.qdimacs
p cnf 47 94
a 32 1 6 9 13 16 20 23 0
e 2 3 4 5 7 8 10 11 12 14 15 17 18 19 21 22 24 25 26 27 28 29 30 31 33 34 35 36 37 38 39 40 41 42 43 44 45 46 47 0
-1 -2 3 0
1 -3 0
2 -3 0
1 2 4 0
-1 -4 0
-2 -4 0
3 4 5 0
-3 -5 0
-4 -5 0
6 7 8 0
-6 -8 0
-7 -8 0
9 10 11 0
-9 -11 0
-10 -11 0
8 11 12 0
-8 -12 0
-11 -12 0
-13 -14 15 0
13 -15 0
14 -15 0
-16 -17 18 0
16 -18 0
17 -18 0
15 18 19 0
-15 -19 0
-18 -19 0
20 21 22 0
-20 -22 0
-21 -22 0
23 24 25 0
-23 -25 0
-24 -25 0
-20 -21 26 0
20 -26 0
21 -26 0
-25 26 27 0
25 -27 0
-26 -27 0
22 27 28 0
-22 -28 0
-27 -28 0
16 17 29 0
-16 -29 0
-17 -29 0
-28 29 30 0
28 -30 0
-29 -30 0
-19 30 31 0
19 -31 0
-30 -31 0
32 33 34 0
-32 -34 0
-33 -34 0
13 14 35 0
-13 -35 0
-14 -35 0
34 35 36 0
-34 -36 0
-35 -36 0
31 -36 37 0
-31 -37 0
36 -37 0
-32 -33 38 0
32 -38 0
33 -38 0
37 38 39 0
-37 -39 0
-38 -39 0
-9 -10 40 0
9 -40 0
10 -40 0
-39 40 41 0
39 -41 0
-40 -41 0
-12 41 42 0
12 -42 0
-41 -42 0
-6 -7 43 0
6 -43 0
7 -43 0
42 43 44 0
-42 -44 0
-43 -44 0
5 44 45 0
-5 -45 0
-44 -45 0
-5 -44 46 0
5 -46 0
44 -46 0
45 46 47 0
-45 -47 0
-46 -47 0
47 0
